(set-logic HORN)
(set-info :source |
    Benchmark: C_VC
    Output by Princess (http://www.philipp.ruemmer.org/princess.shtml)
|)
(set-info :status unknown)
(declare-fun inv_main16 (Int Int Int Int) Bool)
(assert (forall ((var0 Int) (var1 Int) (var2 Int) (var3 Int)) (or (not (and (and (and (<= 0 (+ var2 (- 1))) (= var0 0)) (= var1 0)) (= var3 0))) (inv_main16 var2 var0 var1 var3))))
(assert (forall ((var0 Int) (var1 Int) (var2 Int) (var3 Int) (var4 Int) (var5 Int) (var6 Int) (var7 Int) (var8 Int) (var9 Int)) (or (not (and (inv_main16 var5 var0 var1 var9) (and (and (and (and (and (and (<= 0 (+ var5 (- 1))) (not (= var6 0))) (not (= var4 0))) (= (+ var5 (- 1)) var8)) (= (+ var0 1) var7)) (= (+ var1 var9) var3)) (= 0 var2)))) (inv_main16 var8 var7 var3 var2))))
(assert (forall ((var0 Int) (var1 Int) (var2 Int) (var3 Int) (var4 Int) (var5 Int) (var6 Int) (var7 Int) (var8 Int) (var9 Int)) (or (not (and (inv_main16 var6 var0 var1 var9) (and (and (and (and (and (and (<= 0 (+ (+ var1 var0) (- 1))) (not (= var4 0))) (not (= var3 0))) (= (+ (+ (+ var6 var0) var1) (- 1)) var2)) (= 0 var8)) (= 0 var5)) (= (+ var9 1) var7)))) (inv_main16 var2 var8 var5 var7))))
(assert (forall ((var0 Int) (var1 Int) (var2 Int) (var3 Int) (var4 Int) (var5 Int) (var6 Int) (var7 Int) (var8 Int)) (or (not (and (inv_main16 var5 var0 var2 var7) (and (and (and (and (and (<= 0 (+ var5 (- 1))) (not (= var4 0))) (= (+ (+ var5 1) (- 1)) var3)) (= 0 var6)) (= 0 var8)) (= 1 var1)))) (inv_main16 var3 var6 var8 var1))))
(assert (forall ((var0 Int) (var1 Int) (var2 Int) (var3 Int)) (not (and (inv_main16 var2 var0 var1 var3) (not (<= 0 var3))))))
(assert (forall ((var0 Int) (var1 Int) (var2 Int) (var3 Int)) (not (and (inv_main16 var2 var0 var1 var3) (not (<= 0 var0))))))
(assert (forall ((var0 Int) (var1 Int) (var2 Int) (var3 Int)) (not (and (inv_main16 var2 var0 var1 var3) (not (<= 0 (+ (+ (+ (+ var2 var0) var3) var1) (- 1))))))))
(check-sat)
